c FILE: random-n100-d40-b-n100-d40-1.col

p edge 100 1980
e 1 6
e 1 7
e 1 9
e 1 11
e 1 13
e 1 20
e 1 22
e 1 24
e 1 25
e 1 31
e 1 43
e 1 50
e 1 51
e 1 52
e 1 53
e 1 54
e 1 55
e 1 56
e 1 61
e 1 62
e 1 63
e 1 64
e 1 67
e 1 69
e 1 73
e 1 74
e 1 76
e 1 80
e 1 85
e 1 86
e 1 88
e 1 90
e 1 93
e 1 94
e 1 95
e 1 98
e 2 7
e 2 9
e 2 10
e 2 11
e 2 14
e 2 19
e 2 21
e 2 22
e 2 24
e 2 26
e 2 27
e 2 30
e 2 32
e 2 33
e 2 34
e 2 37
e 2 39
e 2 40
e 2 44
e 2 45
e 2 46
e 2 49
e 2 52
e 2 53
e 2 54
e 2 55
e 2 57
e 2 58
e 2 59
e 2 60
e 2 63
e 2 66
e 2 69
e 2 70
e 2 71
e 2 73
e 2 77
e 2 78
e 2 80
e 2 81
e 2 84
e 2 90
e 2 96
e 2 97
e 2 98
e 3 4
e 3 5
e 3 15
e 3 18
e 3 24
e 3 27
e 3 28
e 3 30
e 3 31
e 3 33
e 3 34
e 3 37
e 3 40
e 3 41
e 3 50
e 3 59
e 3 62
e 3 65
e 3 66
e 3 67
e 3 70
e 3 71
e 3 76
e 3 77
e 3 83
e 3 85
e 3 88
e 3 90
e 3 92
e 3 95
e 3 98
e 3 100
e 4 9
e 4 11
e 4 13
e 4 14
e 4 22
e 4 23
e 4 25
e 4 27
e 4 31
e 4 32
e 4 34
e 4 35
e 4 37
e 4 38
e 4 40
e 4 41
e 4 44
e 4 45
e 4 47
e 4 48
e 4 52
e 4 55
e 4 60
e 4 64
e 4 68
e 4 72
e 4 74
e 4 79
e 4 84
e 4 88
e 4 92
e 4 94
e 4 96
e 4 99
e 4 100
e 5 6
e 5 7
e 5 8
e 5 11
e 5 13
e 5 14
e 5 20
e 5 22
e 5 24
e 5 31
e 5 32
e 5 36
e 5 38
e 5 45
e 5 46
e 5 49
e 5 52
e 5 53
e 5 56
e 5 60
e 5 61
e 5 62
e 5 64
e 5 66
e 5 68
e 5 69
e 5 70
e 5 71
e 5 73
e 5 78
e 5 80
e 5 85
e 5 87
e 5 89
e 5 90
e 5 96
e 5 98
e 5 100
e 6 7
e 6 12
e 6 13
e 6 15
e 6 16
e 6 17
e 6 18
e 6 19
e 6 22
e 6 24
e 6 27
e 6 28
e 6 30
e 6 33
e 6 34
e 6 36
e 6 42
e 6 44
e 6 46
e 6 47
e 6 49
e 6 51
e 6 57
e 6 59
e 6 60
e 6 64
e 6 67
e 6 70
e 6 72
e 6 73
e 6 75
e 6 76
e 6 77
e 6 79
e 6 81
e 6 83
e 6 85
e 6 95
e 6 97
e 6 99
e 7 10
e 7 19
e 7 20
e 7 24
e 7 28
e 7 30
e 7 32
e 7 33
e 7 34
e 7 39
e 7 40
e 7 41
e 7 42
e 7 44
e 7 45
e 7 48
e 7 53
e 7 54
e 7 55
e 7 56
e 7 58
e 7 63
e 7 65
e 7 66
e 7 68
e 7 73
e 7 74
e 7 75
e 7 76
e 7 79
e 7 84
e 7 90
e 7 91
e 7 93
e 7 94
e 7 95
e 7 97
e 7 98
e 7 99
e 8 9
e 8 11
e 8 23
e 8 24
e 8 25
e 8 26
e 8 27
e 8 31
e 8 32
e 8 33
e 8 34
e 8 36
e 8 37
e 8 38
e 8 47
e 8 51
e 8 56
e 8 57
e 8 63
e 8 64
e 8 67
e 8 72
e 8 73
e 8 77
e 8 79
e 8 87
e 8 89
e 8 91
e 8 93
e 8 99
e 9 14
e 9 15
e 9 16
e 9 19
e 9 20
e 9 22
e 9 25
e 9 29
e 9 32
e 9 33
e 9 34
e 9 35
e 9 37
e 9 39
e 9 40
e 9 44
e 9 47
e 9 50
e 9 51
e 9 57
e 9 59
e 9 62
e 9 64
e 9 66
e 9 68
e 9 71
e 9 73
e 9 75
e 9 76
e 9 79
e 9 84
e 9 85
e 9 89
e 9 91
e 9 98
e 9 99
e 9 100
e 10 12
e 10 15
e 10 16
e 10 18
e 10 22
e 10 24
e 10 25
e 10 28
e 10 35
e 10 45
e 10 48
e 10 49
e 10 51
e 10 54
e 10 58
e 10 60
e 10 61
e 10 62
e 10 65
e 10 66
e 10 68
e 10 71
e 10 73
e 10 74
e 10 76
e 10 79
e 10 80
e 10 84
e 10 89
e 10 100
e 11 12
e 11 14
e 11 16
e 11 17
e 11 19
e 11 21
e 11 23
e 11 26
e 11 27
e 11 30
e 11 33
e 11 34
e 11 35
e 11 39
e 11 40
e 11 43
e 11 45
e 11 46
e 11 47
e 11 48
e 11 53
e 11 58
e 11 60
e 11 63
e 11 67
e 11 71
e 11 72
e 11 73
e 11 78
e 11 82
e 11 85
e 11 86
e 11 87
e 11 89
e 11 91
e 11 95
e 11 96
e 11 97
e 11 98
e 11 99
e 11 100
e 12 13
e 12 14
e 12 20
e 12 24
e 12 27
e 12 29
e 12 30
e 12 32
e 12 37
e 12 41
e 12 43
e 12 45
e 12 47
e 12 49
e 12 50
e 12 54
e 12 56
e 12 57
e 12 58
e 12 60
e 12 67
e 12 72
e 12 75
e 12 79
e 12 84
e 12 85
e 12 86
e 12 87
e 12 89
e 12 92
e 12 98
e 13 17
e 13 21
e 13 26
e 13 27
e 13 28
e 13 29
e 13 31
e 13 34
e 13 35
e 13 37
e 13 39
e 13 40
e 13 42
e 13 44
e 13 47
e 13 49
e 13 55
e 13 58
e 13 59
e 13 62
e 13 65
e 13 66
e 13 69
e 13 70
e 13 74
e 13 75
e 13 78
e 13 83
e 13 87
e 13 91
e 13 94
e 13 97
e 13 98
e 14 15
e 14 17
e 14 18
e 14 22
e 14 23
e 14 24
e 14 25
e 14 26
e 14 30
e 14 31
e 14 34
e 14 35
e 14 38
e 14 40
e 14 41
e 14 43
e 14 45
e 14 46
e 14 49
e 14 52
e 14 58
e 14 60
e 14 62
e 14 65
e 14 68
e 14 71
e 14 73
e 14 78
e 14 79
e 14 80
e 14 82
e 14 86
e 14 87
e 14 90
e 14 91
e 14 92
e 14 94
e 14 95
e 14 100
e 15 20
e 15 21
e 15 22
e 15 25
e 15 27
e 15 28
e 15 30
e 15 45
e 15 46
e 15 51
e 15 53
e 15 56
e 15 57
e 15 58
e 15 60
e 15 61
e 15 63
e 15 68
e 15 70
e 15 72
e 15 73
e 15 75
e 15 76
e 15 81
e 15 85
e 15 88
e 15 90
e 15 92
e 15 93
e 15 96
e 15 98
e 15 99
e 16 18
e 16 27
e 16 28
e 16 32
e 16 33
e 16 34
e 16 36
e 16 37
e 16 38
e 16 39
e 16 42
e 16 44
e 16 45
e 16 49
e 16 52
e 16 54
e 16 61
e 16 66
e 16 68
e 16 70
e 16 71
e 16 76
e 16 77
e 16 78
e 16 80
e 16 82
e 16 84
e 16 88
e 16 89
e 16 91
e 16 98
e 16 100
e 17 24
e 17 26
e 17 27
e 17 28
e 17 32
e 17 34
e 17 35
e 17 37
e 17 38
e 17 39
e 17 43
e 17 47
e 17 48
e 17 49
e 17 55
e 17 61
e 17 63
e 17 69
e 17 70
e 17 74
e 17 75
e 17 81
e 17 89
e 17 95
e 18 19
e 18 20
e 18 21
e 18 24
e 18 25
e 18 28
e 18 29
e 18 32
e 18 40
e 18 42
e 18 43
e 18 45
e 18 49
e 18 50
e 18 54
e 18 55
e 18 56
e 18 57
e 18 58
e 18 59
e 18 60
e 18 71
e 18 74
e 18 76
e 18 77
e 18 82
e 18 87
e 18 89
e 18 90
e 18 94
e 18 95
e 18 98
e 18 100
e 19 24
e 19 25
e 19 27
e 19 29
e 19 30
e 19 34
e 19 36
e 19 38
e 19 40
e 19 41
e 19 49
e 19 51
e 19 53
e 19 59
e 19 60
e 19 61
e 19 63
e 19 66
e 19 68
e 19 70
e 19 71
e 19 74
e 19 78
e 19 84
e 19 85
e 19 88
e 19 89
e 19 90
e 19 95
e 19 98
e 19 99
e 20 21
e 20 22
e 20 23
e 20 27
e 20 29
e 20 30
e 20 31
e 20 35
e 20 36
e 20 40
e 20 43
e 20 44
e 20 45
e 20 46
e 20 47
e 20 49
e 20 52
e 20 54
e 20 55
e 20 56
e 20 57
e 20 58
e 20 62
e 20 65
e 20 68
e 20 69
e 20 70
e 20 71
e 20 72
e 20 74
e 20 75
e 20 78
e 20 83
e 20 87
e 20 88
e 20 92
e 20 93
e 20 98
e 20 100
e 21 22
e 21 32
e 21 34
e 21 35
e 21 38
e 21 39
e 21 40
e 21 41
e 21 42
e 21 43
e 21 45
e 21 46
e 21 48
e 21 49
e 21 50
e 21 52
e 21 53
e 21 56
e 21 59
e 21 60
e 21 61
e 21 66
e 21 67
e 21 70
e 21 78
e 21 80
e 21 82
e 21 83
e 21 86
e 21 88
e 21 89
e 21 92
e 21 94
e 21 97
e 21 98
e 21 99
e 22 25
e 22 26
e 22 27
e 22 31
e 22 34
e 22 37
e 22 39
e 22 41
e 22 43
e 22 44
e 22 45
e 22 46
e 22 48
e 22 49
e 22 52
e 22 54
e 22 55
e 22 56
e 22 57
e 22 58
e 22 59
e 22 62
e 22 67
e 22 69
e 22 72
e 22 73
e 22 78
e 22 79
e 22 80
e 22 84
e 22 85
e 22 87
e 22 88
e 22 89
e 22 90
e 22 93
e 22 97
e 22 98
e 22 100
e 23 31
e 23 33
e 23 35
e 23 37
e 23 38
e 23 43
e 23 44
e 23 47
e 23 49
e 23 50
e 23 51
e 23 56
e 23 59
e 23 60
e 23 62
e 23 63
e 23 65
e 23 71
e 23 77
e 23 78
e 23 81
e 23 84
e 23 86
e 23 87
e 23 89
e 23 90
e 23 94
e 23 95
e 23 97
e 23 98
e 23 99
e 24 31
e 24 35
e 24 36
e 24 37
e 24 40
e 24 41
e 24 42
e 24 43
e 24 44
e 24 54
e 24 59
e 24 61
e 24 62
e 24 67
e 24 68
e 24 69
e 24 70
e 24 75
e 24 77
e 24 79
e 24 80
e 24 82
e 24 84
e 24 88
e 24 90
e 24 93
e 24 96
e 25 30
e 25 31
e 25 33
e 25 34
e 25 37
e 25 39
e 25 40
e 25 43
e 25 45
e 25 47
e 25 55
e 25 56
e 25 57
e 25 63
e 25 64
e 25 67
e 25 69
e 25 72
e 25 76
e 25 78
e 25 79
e 25 80
e 25 85
e 25 87
e 25 88
e 25 89
e 25 92
e 25 96
e 25 97
e 25 98
e 26 28
e 26 29
e 26 31
e 26 36
e 26 37
e 26 40
e 26 41
e 26 42
e 26 43
e 26 48
e 26 51
e 26 52
e 26 57
e 26 63
e 26 64
e 26 67
e 26 68
e 26 69
e 26 74
e 26 78
e 26 79
e 26 81
e 26 85
e 26 96
e 26 97
e 26 100
e 27 32
e 27 33
e 27 35
e 27 42
e 27 45
e 27 46
e 27 51
e 27 56
e 27 57
e 27 60
e 27 64
e 27 66
e 27 68
e 27 70
e 27 72
e 27 74
e 27 76
e 27 77
e 27 79
e 27 83
e 27 84
e 27 85
e 27 87
e 27 88
e 27 91
e 27 92
e 27 95
e 27 97
e 27 100
e 28 30
e 28 31
e 28 32
e 28 33
e 28 35
e 28 38
e 28 39
e 28 41
e 28 42
e 28 43
e 28 46
e 28 51
e 28 52
e 28 53
e 28 56
e 28 62
e 28 63
e 28 65
e 28 66
e 28 67
e 28 68
e 28 70
e 28 76
e 28 79
e 28 80
e 28 87
e 28 88
e 28 90
e 28 92
e 28 94
e 28 96
e 28 97
e 28 98
e 29 36
e 29 40
e 29 44
e 29 48
e 29 49
e 29 50
e 29 52
e 29 59
e 29 66
e 29 67
e 29 71
e 29 72
e 29 73
e 29 75
e 29 77
e 29 79
e 29 81
e 29 84
e 29 89
e 29 91
e 29 93
e 29 94
e 29 96
e 29 98
e 29 99
e 29 100
e 30 31
e 30 32
e 30 33
e 30 36
e 30 37
e 30 38
e 30 39
e 30 41
e 30 42
e 30 44
e 30 45
e 30 51
e 30 52
e 30 53
e 30 54
e 30 56
e 30 63
e 30 67
e 30 70
e 30 71
e 30 74
e 30 75
e 30 79
e 30 81
e 30 84
e 30 86
e 30 88
e 30 89
e 30 90
e 30 97
e 30 99
e 31 34
e 31 36
e 31 38
e 31 39
e 31 42
e 31 47
e 31 50
e 31 54
e 31 56
e 31 61
e 31 63
e 31 64
e 31 67
e 31 77
e 31 78
e 31 81
e 31 92
e 31 99
e 31 100
e 32 33
e 32 35
e 32 40
e 32 49
e 32 50
e 32 51
e 32 53
e 32 56
e 32 58
e 32 63
e 32 64
e 32 66
e 32 67
e 32 68
e 32 71
e 32 77
e 32 78
e 32 79
e 32 81
e 32 90
e 32 91
e 32 93
e 32 98
e 32 99
e 32 100
e 33 40
e 33 41
e 33 43
e 33 46
e 33 49
e 33 50
e 33 51
e 33 52
e 33 54
e 33 55
e 33 56
e 33 57
e 33 62
e 33 66
e 33 68
e 33 70
e 33 73
e 33 75
e 33 79
e 33 83
e 33 87
e 33 90
e 33 94
e 33 98
e 33 99
e 34 36
e 34 37
e 34 40
e 34 41
e 34 42
e 34 43
e 34 44
e 34 45
e 34 50
e 34 51
e 34 54
e 34 56
e 34 60
e 34 61
e 34 69
e 34 71
e 34 72
e 34 73
e 34 74
e 34 78
e 34 79
e 34 80
e 34 85
e 34 92
e 34 93
e 34 94
e 34 97
e 34 98
e 35 37
e 35 38
e 35 42
e 35 49
e 35 50
e 35 52
e 35 54
e 35 57
e 35 58
e 35 62
e 35 63
e 35 64
e 35 71
e 35 73
e 35 78
e 35 82
e 35 83
e 35 87
e 35 89
e 35 91
e 35 92
e 35 93
e 35 95
e 35 98
e 35 99
e 35 100
e 36 38
e 36 40
e 36 41
e 36 43
e 36 46
e 36 47
e 36 51
e 36 57
e 36 59
e 36 61
e 36 62
e 36 63
e 36 66
e 36 69
e 36 73
e 36 74
e 36 76
e 36 80
e 36 85
e 36 88
e 36 89
e 36 90
e 36 91
e 36 93
e 36 94
e 36 97
e 36 99
e 37 38
e 37 39
e 37 43
e 37 44
e 37 46
e 37 48
e 37 49
e 37 50
e 37 56
e 37 57
e 37 58
e 37 59
e 37 61
e 37 63
e 37 64
e 37 65
e 37 68
e 37 71
e 37 73
e 37 74
e 37 75
e 37 80
e 37 81
e 37 82
e 37 85
e 37 89
e 37 90
e 37 95
e 37 97
e 37 98
e 37 100
e 38 41
e 38 43
e 38 44
e 38 50
e 38 51
e 38 53
e 38 55
e 38 60
e 38 62
e 38 65
e 38 66
e 38 67
e 38 70
e 38 71
e 38 75
e 38 76
e 38 77
e 38 80
e 38 83
e 38 84
e 38 85
e 38 93
e 38 94
e 38 96
e 38 97
e 39 42
e 39 44
e 39 46
e 39 47
e 39 51
e 39 52
e 39 56
e 39 62
e 39 64
e 39 67
e 39 69
e 39 71
e 39 74
e 39 78
e 39 79
e 39 80
e 39 84
e 39 86
e 39 87
e 39 93
e 39 100
e 40 42
e 40 46
e 40 47
e 40 48
e 40 49
e 40 54
e 40 57
e 40 63
e 40 65
e 40 67
e 40 68
e 40 70
e 40 71
e 40 76
e 40 78
e 40 80
e 40 81
e 40 84
e 40 85
e 40 87
e 40 89
e 40 90
e 40 93
e 40 94
e 40 96
e 40 99
e 40 100
e 41 49
e 41 52
e 41 53
e 41 55
e 41 57
e 41 59
e 41 62
e 41 64
e 41 65
e 41 66
e 41 69
e 41 70
e 41 73
e 41 77
e 41 79
e 41 85
e 41 86
e 41 87
e 41 88
e 41 95
e 41 98
e 41 99
e 41 100
e 42 44
e 42 45
e 42 49
e 42 51
e 42 52
e 42 54
e 42 55
e 42 57
e 42 59
e 42 61
e 42 63
e 42 64
e 42 65
e 42 66
e 42 68
e 42 69
e 42 70
e 42 72
e 42 73
e 42 74
e 42 75
e 42 77
e 42 78
e 42 81
e 42 85
e 42 86
e 42 92
e 43 52
e 43 54
e 43 55
e 43 60
e 43 62
e 43 65
e 43 71
e 43 73
e 43 75
e 43 77
e 43 78
e 43 82
e 43 83
e 43 86
e 43 87
e 43 88
e 43 90
e 43 95
e 43 97
e 43 98
e 44 46
e 44 48
e 44 55
e 44 56
e 44 57
e 44 61
e 44 66
e 44 68
e 44 69
e 44 71
e 44 79
e 44 80
e 44 81
e 44 85
e 44 89
e 44 94
e 44 98
e 44 99
e 45 47
e 45 50
e 45 51
e 45 52
e 45 54
e 45 55
e 45 59
e 45 61
e 45 66
e 45 67
e 45 69
e 45 70
e 45 73
e 45 74
e 45 77
e 45 78
e 45 79
e 45 83
e 45 84
e 45 86
e 45 87
e 45 89
e 45 93
e 45 94
e 45 96
e 45 97
e 45 100
e 46 56
e 46 57
e 46 58
e 46 59
e 46 60
e 46 61
e 46 64
e 46 66
e 46 67
e 46 68
e 46 69
e 46 70
e 46 72
e 46 73
e 46 76
e 46 77
e 46 78
e 46 80
e 46 82
e 46 83
e 46 85
e 46 86
e 46 87
e 46 92
e 46 94
e 46 96
e 46 97
e 47 52
e 47 54
e 47 56
e 47 57
e 47 59
e 47 63
e 47 64
e 47 67
e 47 71
e 47 73
e 47 75
e 47 77
e 47 80
e 47 82
e 47 90
e 47 91
e 47 92
e 47 93
e 47 94
e 47 95
e 47 97
e 47 99
e 48 49
e 48 51
e 48 52
e 48 53
e 48 58
e 48 59
e 48 60
e 48 61
e 48 63
e 48 65
e 48 66
e 48 67
e 48 69
e 48 74
e 48 75
e 48 76
e 48 78
e 48 79
e 48 80
e 48 81
e 48 82
e 48 84
e 48 85
e 48 87
e 48 91
e 48 95
e 48 96
e 48 100
e 49 52
e 49 53
e 49 54
e 49 58
e 49 59
e 49 61
e 49 66
e 49 67
e 49 68
e 49 71
e 49 74
e 49 76
e 49 77
e 49 80
e 49 83
e 49 87
e 49 90
e 49 92
e 49 94
e 49 97
e 50 51
e 50 52
e 50 56
e 50 60
e 50 61
e 50 65
e 50 66
e 50 67
e 50 70
e 50 73
e 50 81
e 50 83
e 50 86
e 50 87
e 50 90
e 50 92
e 50 93
e 50 94
e 50 100
e 51 56
e 51 57
e 51 58
e 51 65
e 51 66
e 51 70
e 51 74
e 51 76
e 51 77
e 51 80
e 51 81
e 51 82
e 51 83
e 51 85
e 51 87
e 51 88
e 51 89
e 51 91
e 51 92
e 51 93
e 51 97
e 51 98
e 51 99
e 51 100
e 52 54
e 52 56
e 52 61
e 52 64
e 52 65
e 52 70
e 52 71
e 52 72
e 52 76
e 52 77
e 52 78
e 52 80
e 52 82
e 52 86
e 52 89
e 52 90
e 52 91
e 52 92
e 52 93
e 52 96
e 52 97
e 52 100
e 53 56
e 53 57
e 53 62
e 53 65
e 53 67
e 53 68
e 53 69
e 53 71
e 53 73
e 53 75
e 53 78
e 53 80
e 53 81
e 53 82
e 53 85
e 53 88
e 53 89
e 53 90
e 53 96
e 53 97
e 53 98
e 54 57
e 54 60
e 54 62
e 54 65
e 54 67
e 54 68
e 54 69
e 54 70
e 54 71
e 54 72
e 54 75
e 54 76
e 54 81
e 54 85
e 54 88
e 54 91
e 54 94
e 54 96
e 55 58
e 55 59
e 55 60
e 55 64
e 55 65
e 55 66
e 55 71
e 55 75
e 55 76
e 55 77
e 55 79
e 55 80
e 55 81
e 55 84
e 55 86
e 55 88
e 55 89
e 55 94
e 55 95
e 55 96
e 55 98
e 56 59
e 56 60
e 56 66
e 56 71
e 56 72
e 56 75
e 56 77
e 56 80
e 56 82
e 56 83
e 56 84
e 56 87
e 56 91
e 56 94
e 56 96
e 56 97
e 56 98
e 56 100
e 57 59
e 57 65
e 57 66
e 57 68
e 57 69
e 57 71
e 57 77
e 57 78
e 57 79
e 57 80
e 57 81
e 57 83
e 57 85
e 57 86
e 57 87
e 57 88
e 57 90
e 57 91
e 58 60
e 58 64
e 58 66
e 58 67
e 58 69
e 58 72
e 58 75
e 58 78
e 58 83
e 58 88
e 58 89
e 58 91
e 58 92
e 58 94
e 58 97
e 59 61
e 59 64
e 59 67
e 59 70
e 59 71
e 59 72
e 59 73
e 59 74
e 59 75
e 59 84
e 59 89
e 59 95
e 59 97
e 59 98
e 60 61
e 60 62
e 60 65
e 60 67
e 60 68
e 60 69
e 60 79
e 60 80
e 60 82
e 60 84
e 60 87
e 60 89
e 60 90
e 60 94
e 60 95
e 60 96
e 60 100
e 61 64
e 61 66
e 61 68
e 61 73
e 61 79
e 61 80
e 61 82
e 61 83
e 61 88
e 61 89
e 61 90
e 61 94
e 61 95
e 61 97
e 61 98
e 61 100
e 62 64
e 62 67
e 62 68
e 62 70
e 62 74
e 62 75
e 62 76
e 62 79
e 62 81
e 62 84
e 62 85
e 62 89
e 62 90
e 62 92
e 62 96
e 62 98
e 62 100
e 63 66
e 63 68
e 63 71
e 63 72
e 63 73
e 63 74
e 63 75
e 63 78
e 63 80
e 63 81
e 63 83
e 63 86
e 63 88
e 63 89
e 63 90
e 63 92
e 63 97
e 63 98
e 64 72
e 64 74
e 64 75
e 64 76
e 64 77
e 64 78
e 64 79
e 64 84
e 64 85
e 64 87
e 64 95
e 64 98
e 64 99
e 64 100
e 65 69
e 65 71
e 65 75
e 65 79
e 65 82
e 65 84
e 65 85
e 65 88
e 65 92
e 65 93
e 65 94
e 65 97
e 65 100
e 66 67
e 66 68
e 66 73
e 66 74
e 66 78
e 66 85
e 66 87
e 66 88
e 66 89
e 66 92
e 66 99
e 66 100
e 67 68
e 67 71
e 67 72
e 67 77
e 67 82
e 67 86
e 67 89
e 67 93
e 67 98
e 68 69
e 68 72
e 68 75
e 68 76
e 68 78
e 68 79
e 68 81
e 68 88
e 68 93
e 68 100
e 69 72
e 69 79
e 69 81
e 69 83
e 69 84
e 69 87
e 69 92
e 69 93
e 69 95
e 69 97
e 69 100
e 70 71
e 70 73
e 70 79
e 70 80
e 70 87
e 70 88
e 70 89
e 70 91
e 70 93
e 70 94
e 70 95
e 70 98
e 70 99
e 71 72
e 71 76
e 71 77
e 71 80
e 71 82
e 71 84
e 71 85
e 71 86
e 71 90
e 71 92
e 71 93
e 71 95
e 71 96
e 71 100
e 72 77
e 72 79
e 72 80
e 72 81
e 72 85
e 72 87
e 72 89
e 72 91
e 72 92
e 72 98
e 73 74
e 73 76
e 73 78
e 73 79
e 73 82
e 73 83
e 73 84
e 73 85
e 73 87
e 73 89
e 73 94
e 73 95
e 73 99
e 74 75
e 74 79
e 74 80
e 74 81
e 74 82
e 74 91
e 74 94
e 74 95
e 74 97
e 74 100
e 75 76
e 75 78
e 75 81
e 75 86
e 75 88
e 75 89
e 75 92
e 75 96
e 75 99
e 76 79
e 76 80
e 76 81
e 76 86
e 76 87
e 76 88
e 76 89
e 76 91
e 76 96
e 76 97
e 76 98
e 77 80
e 77 82
e 77 85
e 77 86
e 77 91
e 77 94
e 77 95
e 77 96
e 77 97
e 77 99
e 78 81
e 78 83
e 78 86
e 78 96
e 78 97
e 78 99
e 79 80
e 79 81
e 79 87
e 79 89
e 79 93
e 79 98
e 79 100
e 80 81
e 80 86
e 80 87
e 80 88
e 80 89
e 80 91
e 80 92
e 80 93
e 80 94
e 80 95
e 80 97
e 80 98
e 81 82
e 81 83
e 81 85
e 81 86
e 81 87
e 81 92
e 81 93
e 81 95
e 81 96
e 82 84
e 82 86
e 82 97
e 82 99
e 83 85
e 83 90
e 83 98
e 83 100
e 84 86
e 84 87
e 84 88
e 84 95
e 84 98
e 84 100
e 85 87
e 85 91
e 85 98
e 85 99
e 85 100
e 86 90
e 87 88
e 87 94
e 87 99
e 87 100
e 88 89
e 88 92
e 88 93
e 88 97
e 88 98
e 89 91
e 89 92
e 89 95
e 89 98
e 90 93
e 90 94
e 90 98
e 91 93
e 91 94
e 91 95
e 91 100
e 92 99
e 93 94
e 93 96
e 93 97
e 93 98
e 93 99
e 94 96
e 94 98
e 94 99
e 94 100
e 95 98
e 95 100
e 96 97
e 96 98
e 97 98
e 97 99
e 97 100
e 99 100